<number of tasks>
50

<cycle time>
1000

<order strength>
0.204


<task times>
1 326
2 94
3 268
4 400
5 115
6 244
7 76
8 545
9 235
10 157
11 146
12 45
13 215
14 655
15 55
16 67
17 91
18 32
19 113
20 208
21 241
22 118
23 179
24 477
25 36
26 501
27 510
28 119
29 244
30 206
31 216
32 167
33 181
34 54
35 119
36 502
37 551
38 76
39 35
40 245
41 96
42 320
43 43
44 50
45 272
46 31
47 459
48 112
49 60
50 170

<precedence relations>
1,36
2,5
3,4
3,6
3,7
3,8
3,9
3,10
4,36
5,11
6,12
6,26
7,35
8,14
9,12
10,13
10,15
11,36
12,16
12,17
13,18
13,21
14,20
15,19
16,22
17,24
18,26
21,23
21,25
22,30
23,28
23,29
23,32
23,33
24,31
24,34
24,35
25,27
27,36
28,38
29,39
30,37
34,40
36,41
36,42
36,43
36,44
36,45
36,46
37,47
38,48
39,49
40,50

<end>
